DIMACS2
40 268 286 25 251 156 132 282 213 101 124 95 226 108 147 92 198 236 104 295 113 97 134 43 87 4 309 299 128 201 135 293 3 301 183 172 16 254 68 234 271
p edge 320 1887
e 0 179 3.0
e 0 174 19.0
e 1 275 2.0
e 1 49 2.0
e 2 46 1.0
e 2 147 46.0
e 3 39 43.0
e 3 8 36.0
e 3 16 19.0
e 3 117 31.0
e 3 259 25.0
e 3 72 6.0
e 3 301 45.0
e 3 303 47.0
e 3 135 5.0
e 3 182 46.0
e 3 66 35.0
e 3 17 23.0
e 3 180 34.0
e 3 207 47.0
e 3 29 42.0
e 3 73 25.0
e 3 11 41.0
e 3 7 10.0
e 3 90 11.0
e 3 128 33.0
e 3 233 36.0
e 3 44 34.0
e 3 87 16.0
e 3 22 37.0
e 3 154 42.0
e 3 136 26.0
e 3 285 35.0
e 3 195 36.0
e 3 248 35.0
e 3 304 35.0
e 3 26 10.0
e 3 164 22.0
e 3 230 40.0
e 3 169 42.0
e 3 226 42.0
e 3 6 22.0
e 3 99 32.0
e 3 286 40.0
e 3 227 10.0
e 4 213 22.0
e 4 60 29.0
e 4 1 29.0
e 4 241 4.0
e 4 113 32.0
e 4 115 6.0
e 4 140 39.0
e 4 95 40.0
e 4 172 29.0
e 4 316 38.0
e 4 106 36.0
e 4 90 2.0
e 4 94 47.0
e 4 19 42.0
e 4 219 41.0
e 4 6 31.0
e 4 302 35.0
e 4 248 35.0
e 4 91 46.0
e 4 82 9.0
e 4 237 1.0
e 4 124 12.0
e 4 203 42.0
e 4 217 5.0
e 4 116 49.0
e 4 117 7.0
e 4 135 13.0
e 4 200 23.0
e 4 204 15.0
e 4 86 34.0
e 4 252 13.0
e 4 304 31.0
e 4 22 26.0
e 4 141 45.0
e 4 66 45.0
e 4 127 36.0
e 4 242 37.0
e 4 137 30.0
e 4 78 27.0
e 4 7 6.0
e 4 278 46.0
e 5 38 1.0
e 6 142 1.0
e 7 305 2.0
e 8 202 6.0
e 8 142 1.0
e 8 71 9.0
e 8 231 8.0
e 8 100 3.0
e 8 192 7.0
e 8 312 2.0
e 8 318 7.0
e 8 174 24.0
e 9 151 1.0
e 10 25 9.0
e 10 277 3.0
e 10 116 1.0
e 10 258 3.0
e 10 132 49.0
e 10 119 1.0
e 11 310 1.0
e 12 82 2.0
e 13 268 23.0
e 14 277 1.0
e 14 295 41.0
e 14 172 16.0
e 15 5 1.0
e 16 162 33.0
e 16 220 46.0
e 16 254 49.0
e 16 158 13.0
e 16 231 32.0
e 16 213 43.0
e 16 284 4.0
e 16 125 34.0
e 16 128 41.0
e 16 62 18.0
e 16 50 37.0
e 16 176 27.0
e 16 204 28.0
e 16 214 10.0
e 16 38 47.0
e 16 6 22.0
e 16 69 37.0
e 16 268 7.0
e 16 277 46.0
e 16 232 8.0
e 16 99 14.0
e 16 228 3.0
e 16 257 1.0
e 16 25 37.0
e 16 113 49.0
e 16 316 15.0
e 16 149 28.0
e 16 106 4.0
e 16 116 21.0
e 16 7 7.0
e 16 165 24.0
e 16 37 5.0
e 16 79 44.0
e 16 71 18.0
e 16 97 23.0
e 16 19 4.0
e 16 211 31.0
e 16 273 20.0
e 16 129 40.0
e 16 246 39.0
e 17 51 1.0
e 18 27 1.0
e 18 40 1.0
e 19 8 7.0
e 20 120 1.0
e 20 265 1.0
e 21 243 1.0
e 21 59 3.0
e 22 105 2.0
e 23 260 1.0
e 24 134 31.0
e 24 233 1.0
e 24 172 11.0
e 24 3 23.0
e 24 137 6.0
e 25 70 11.0
e 25 224 20.0
e 25 258 37.0
e 25 261 14.0
e 25 242 47.0
e 25 163 25.0
e 25 318 9.0
e 25 126 42.0
e 25 66 5.0
e 25 78 9.0
e 25 105 25.0
e 25 290 28.0
e 25 229 20.0
e 25 263 40.0
e 25 170 4.0
e 25 190 13.0
e 25 235 15.0
e 25 171 23.0
e 25 222 37.0
e 25 91 20.0
e 25 118 2.0
e 25 249 33.0
e 25 214 26.0
e 25 97 41.0
e 25 117 28.0
e 25 291 15.0
e 25 1 18.0
e 25 191 15.0
e 25 266 3.0
e 25 186 41.0
e 25 275 40.0
e 25 48 34.0
e 25 157 13.0
e 25 294 43.0
e 25 151 25.0
e 25 34 32.0
e 25 250 9.0
e 25 113 17.0
e 26 231 1.0
e 27 147 41.0
e 28 151 3.0
e 29 248 1.0
e 30 249 2.0
e 31 32 1.0
e 31 223 2.0
e 32 306 1.0
e 33 147 44.0
e 34 298 1.0
e 34 136 1.0
e 34 217 5.0
e 35 308 1.0
e 35 239 1.0
e 36 149 2.0
e 37 133 3.0
e 38 44 1.0
e 39 306 1.0
e 39 21 2.0
e 40 142 1.0
e 41 270 1.0
e 42 33 1.0
e 42 7 1.0
e 43 3 47.0
e 43 93 14.0
e 43 275 17.0
e 43 1 32.0
e 43 165 37.0
e 43 103 12.0
e 43 138 3.0
e 43 13 4.0
e 43 39 4.0
e 43 5 43.0
e 43 208 29.0
e 43 96 32.0
e 43 250 4.0
e 43 161 16.0
e 43 262 11.0
e 43 307 16.0
e 43 142 6.0
e 43 36 16.0
e 43 205 38.0
e 43 251 10.0
e 43 132 19.0
e 43 2 21.0
e 43 139 14.0
e 43 188 33.0
e 43 158 31.0
e 43 167 42.0
e 43 246 47.0
e 43 30 38.0
e 43 277 9.0
e 43 151 41.0
e 43 166 10.0
e 43 270 22.0
e 43 143 10.0
e 43 219 19.0
e 43 129 40.0
e 43 146 19.0
e 43 267 29.0
e 43 145 33.0
e 43 314 37.0
e 43 144 6.0
e 44 110 2.0
e 45 9 1.0
e 45 234 7.0
e 46 12 1.0
e 47 103 1.0
e 47 220 2.0
e 48 87 16.0
e 48 155 1.0
e 49 13 1.0
e 50 30 1.0
e 51 116 1.0
e 52 60 1.0
e 53 233 1.0
e 54 229 1.0
e 54 20 1.0
e 54 67 2.0
e 55 41 1.0
e 55 82 3.0
e 56 133 1.0
e 56 212 1.0
e 57 247 2.0
e 58 215 1.0
e 58 8 11.0
e 59 235 1.0
e 60 265 1.0
e 61 132 16.0
e 61 28 3.0
e 61 223 2.0
e 62 112 1.0
e 63 144 1.0
e 63 150 1.0
e 64 289 1.0
e 65 34 4.0
e 65 203 1.0
e 66 233 1.0
e 67 238 1.0
e 67 29 2.0
e 68 7 46.0
e 68 17 5.0
e 68 158 13.0
e 68 1 20.0
e 68 301 11.0
e 68 263 48.0
e 68 150 46.0
e 68 244 38.0
e 68 82 41.0
e 68 50 37.0
e 68 159 24.0
e 68 261 28.0
e 68 114 32.0
e 68 137 26.0
e 68 99 39.0
e 68 139 38.0
e 68 143 6.0
e 68 178 15.0
e 68 134 14.0
e 68 179 17.0
e 68 264 30.0
e 68 31 35.0
e 68 185 41.0
e 68 8 16.0
e 68 299 7.0
e 68 47 19.0
e 68 136 34.0
e 68 12 36.0
e 68 69 9.0
e 68 225 34.0
e 68 318 19.0
e 68 54 22.0
e 68 152 1.0
e 68 128 36.0
e 68 70 24.0
e 68 183 35.0
e 68 258 27.0
e 68 219 38.0
e 68 2 24.0
e 68 161 33.0
e 68 182 29.0
e 69 19 1.0
e 70 293 11.0
e 71 206 1.0
e 72 111 5.0
e 72 137 1.0
e 72 146 4.0
e 72 25 25.0
e 72 193 1.0
e 72 242 11.0
e 72 144 9.0
e 72 4 43.0
e 72 52 1.0
e 72 264 11.0
e 73 75 1.0
e 74 17 1.0
e 75 44 1.0
e 76 109 1.0
e 77 244 1.0
e 77 129 1.0
e 77 204 1.0
e 78 274 1.0
e 79 55 1.0
e 80 47 1.0
e 80 271 16.0
e 80 227 1.0
e 81 216 1.0
e 81 7 1.0
e 82 213 24.0
e 83 116 1.0
e 83 258 1.0
e 84 167 1.0
e 84 168 1.0
e 84 291 2.0
e 85 126 2.0
e 85 216 2.0
e 86 147 29.0
e 86 112 3.0
e 86 14 2.0
e 86 275 3.0
e 86 91 2.0
e 87 7 27.0
e 87 297 14.0
e 87 261 31.0
e 87 144 36.0
e 87 237 29.0
e 87 260 23.0
e 87 77 44.0
e 87 130 48.0
e 87 182 4.0
e 87 112 2.0
e 87 72 19.0
e 87 263 39.0
e 87 46 33.0
e 87 277 6.0
e 87 88 40.0
e 87 61 34.0
e 87 199 15.0
e 87 133 26.0
e 87 300 41.0
e 87 82 47.0
e 87 278 14.0
e 87 248 32.0
e 87 142 40.0
e 87 283 9.0
e 87 173 42.0
e 87 175 10.0
e 87 123 3.0
e 87 250 4.0
e 87 274 25.0
e 87 65 6.0
e 87 215 47.0
e 87 50 32.0
e 87 198 22.0
e 87 147 6.0
e 87 298 30.0
e 87 225 1.0
e 87 66 32.0
e 87 101 24.0
e 88 242 1.0
e 89 257 1.0
e 90 140 2.0
e 91 59 1.0
e 92 139 28.0
e 92 36 15.0
e 92 182 21.0
e 92 308 17.0
e 92 224 1.0
e 92 162 4.0
e 92 287 47.0
e 92 65 25.0
e 92 41 23.0
e 92 88 14.0
e 92 189 10.0
e 92 77 42.0
e 92 158 47.0
e 92 216 19.0
e 92 157 25.0
e 92 39 7.0
e 92 132 2.0
e 92 25 14.0
e 92 212 17.0
e 92 316 36.0
e 92 179 36.0
e 92 49 19.0
e 92 167 20.0
e 92 119 38.0
e 92 111 38.0
e 92 120 9.0
e 92 63 30.0
e 92 11 14.0
e 92 83 32.0
e 92 5 16.0
e 92 283 16.0
e 92 256 36.0
e 92 309 34.0
e 92 137 26.0
e 92 112 34.0
e 92 249 35.0
e 92 278 44.0
e 92 117 38.0
e 92 12 6.0
e 92 42 29.0
e 92 155 33.0
e 93 3 18.0
e 93 271 24.0
e 94 53 1.0
e 95 188 4.0
e 95 246 31.0
e 95 161 8.0
e 95 248 30.0
e 95 284 30.0
e 95 62 29.0
e 95 237 36.0
e 95 189 44.0
e 95 85 35.0
e 95 269 44.0
e 95 7 33.0
e 95 317 27.0
e 95 10 38.0
e 95 211 30.0
e 95 256 33.0
e 95 141 9.0
e 95 127 11.0
e 95 242 49.0
e 95 261 14.0
e 95 192 34.0
e 95 65 28.0
e 95 183 48.0
e 95 73 23.0
e 95 299 27.0
e 95 94 12.0
e 95 79 4.0
e 95 212 20.0
e 95 247 23.0
e 95 122 8.0
e 95 17 44.0
e 95 5 21.0
e 95 98 17.0
e 95 38 4.0
e 95 292 14.0
e 95 225 34.0
e 95 214 31.0
e 95 175 7.0
e 95 171 44.0
e 95 227 9.0
e 96 117 1.0
e 97 206 8.0
e 97 184 12.0
e 97 148 21.0
e 97 23 11.0
e 97 243 33.0
e 97 63 16.0
e 97 269 23.0
e 97 121 28.0
e 97 201 6.0
e 97 311 26.0
e 97 232 44.0
e 97 109 20.0
e 97 38 18.0
e 97 131 36.0
e 97 196 22.0
e 97 262 7.0
e 97 119 25.0
e 97 34 37.0
e 97 1 25.0
e 97 282 2.0
e 97 274 33.0
e 97 295 33.0
e 97 224 13.0
e 97 240 38.0
e 97 189 32.0
e 97 163 47.0
e 97 260 37.0
e 97 79 13.0
e 97 90 6.0
e 97 312 33.0
e 97 42 19.0
e 97 80 21.0
e 97 221 8.0
e 97 51 27.0
e 97 258 31.0
e 97 173 40.0
e 97 207 47.0
e 97 110 40.0
e 98 304 1.0
e 99 224 1.0
e 100 69 2.0
e 101 109 11.0
e 101 299 37.0
e 101 9 26.0
e 101 260 14.0
e 101 306 34.0
e 101 208 20.0
e 101 284 22.0
e 101 291 38.0
e 101 117 23.0
e 101 38 16.0
e 101 193 28.0
e 101 307 25.0
e 101 308 7.0
e 101 17 27.0
e 101 60 36.0
e 101 46 28.0
e 101 115 44.0
e 101 145 6.0
e 101 84 49.0
e 101 159 17.0
e 101 19 7.0
e 101 155 18.0
e 101 150 3.0
e 101 239 14.0
e 101 171 48.0
e 101 297 9.0
e 101 249 14.0
e 101 287 4.0
e 101 309 21.0
e 101 161 30.0
e 101 11 37.0
e 101 310 21.0
e 101 278 42.0
e 101 93 15.0
e 101 311 35.0
e 101 133 45.0
e 101 163 6.0
e 101 205 11.0
e 101 303 30.0
e 102 51 1.0
e 102 2 1.0
e 102 16 29.0
e 103 73 2.0
e 104 316 44.0
e 104 100 26.0
e 104 308 44.0
e 104 239 27.0
e 104 79 49.0
e 104 186 12.0
e 104 88 7.0
e 104 22 29.0
e 104 157 5.0
e 104 175 33.0
e 104 220 5.0
e 104 241 8.0
e 104 194 43.0
e 104 273 7.0
e 104 50 29.0
e 104 106 39.0
e 104 59 14.0
e 104 254 40.0
e 104 5 6.0
e 104 244 23.0
e 104 163 12.0
e 104 256 24.0
e 104 291 35.0
e 104 159 44.0
e 104 243 21.0
e 104 132 35.0
e 104 185 39.0
e 104 158 6.0
e 104 57 5.0
e 104 221 23.0
e 104 72 32.0
e 104 136 12.0
e 104 202 22.0
e 104 162 40.0
e 104 190 49.0
e 104 245 31.0
e 104 24 32.0
e 104 139 6.0
e 104 148 3.0
e 104 62 18.0
e 104 160 13.0
e 105 201 44.0
e 106 232 2.0
e 107 218 3.0
e 107 73 1.0
e 108 173 27.0
e 108 166 39.0
e 108 261 39.0
e 108 143 26.0
e 108 80 40.0
e 108 176 33.0
e 108 256 20.0
e 108 147 2.0
e 108 270 19.0
e 108 233 45.0
e 108 259 39.0
e 108 87 15.0
e 108 74 18.0
e 108 140 48.0
e 108 82 22.0
e 108 213 43.0
e 108 234 24.0
e 108 28 46.0
e 108 116 16.0
e 108 57 15.0
e 108 303 8.0
e 108 81 32.0
e 108 64 21.0
e 108 200 13.0
e 108 304 23.0
e 108 155 6.0
e 108 16 9.0
e 108 157 31.0
e 108 300 4.0
e 108 90 5.0
e 108 113 26.0
e 108 128 7.0
e 108 114 17.0
e 108 11 4.0
e 108 71 39.0
e 108 318 12.0
e 108 197 4.0
e 108 2 41.0
e 108 236 28.0
e 108 215 32.0
e 108 307 6.0
e 109 228 1.0
e 110 82 1.0
e 111 24 2.0
e 112 284 1.0
e 113 33 41.0
e 113 2 6.0
e 113 239 20.0
e 113 131 35.0
e 113 144 43.0
e 113 124 25.0
e 113 313 13.0
e 113 282 24.0
e 113 264 12.0
e 113 40 1.0
e 113 38 7.0
e 113 219 25.0
e 113 287 32.0
e 113 281 43.0
e 113 260 38.0
e 113 277 7.0
e 113 126 21.0
e 113 118 21.0
e 113 132 28.0
e 113 252 40.0
e 113 210 32.0
e 113 286 41.0
e 113 81 44.0
e 113 205 44.0
e 113 250 1.0
e 113 36 16.0
e 113 236 35.0
e 113 67 2.0
e 113 278 22.0
e 113 257 15.0
e 113 193 37.0
e 113 241 39.0
e 113 73 22.0
e 113 10 47.0
e 113 120 15.0
e 113 295 23.0
e 114 90 1.0
e 115 281 1.0
e 116 98 1.0
e 117 64 1.0
e 118 18 2.0
e 119 174 5.0
e 120 52 1.0
e 121 205 1.0
e 122 87 9.0
e 122 306 2.0
e 123 268 34.0
e 124 46 3.0
e 124 10 41.0
e 124 108 10.0
e 124 260 17.0
e 124 47 48.0
e 124 258 3.0
e 124 69 40.0
e 124 123 17.0
e 124 233 35.0
e 124 36 7.0
e 124 33 23.0
e 124 264 5.0
e 124 168 29.0
e 124 265 48.0
e 124 24 24.0
e 124 207 34.0
e 124 289 48.0
e 124 301 4.0
e 124 122 21.0
e 124 110 15.0
e 124 259 10.0
e 124 231 28.0
e 124 58 40.0
e 124 169 19.0
e 124 277 49.0
e 124 105 29.0
e 124 191 41.0
e 124 125 18.0
e 124 170 28.0
e 124 38 21.0
e 124 21 1.0
e 124 143 14.0
e 124 175 24.0
e 124 313 20.0
e 124 95 7.0
e 124 101 13.0
e 124 290 26.0
e 124 282 5.0
e 124 87 41.0
e 125 240 2.0
e 126 167 2.0
e 127 220 1.0
e 128 213 32.0
e 128 24 36.0
e 128 193 17.0
e 128 258 34.0
e 128 41 19.0
e 128 285 9.0
e 128 253 23.0
e 128 181 11.0
e 128 215 23.0
e 128 6 38.0
e 128 259 16.0
e 128 133 25.0
e 128 309 11.0
e 128 125 48.0
e 128 5 23.0
e 128 162 49.0
e 128 103 17.0
e 128 245 38.0
e 128 229 46.0
e 128 185 21.0
e 128 203 49.0
e 128 202 34.0
e 128 210 10.0
e 128 179 3.0
e 128 123 28.0
e 128 247 39.0
e 128 57 35.0
e 128 50 35.0
e 128 55 8.0
e 128 51 15.0
e 128 237 19.0
e 128 119 26.0
e 128 87 22.0
e 128 269 21.0
e 128 174 43.0
e 128 236 38.0
e 128 46 41.0
e 129 95 27.0
e 130 169 2.0
e 130 300 1.0
e 131 210 1.0
e 132 174 30.0
e 132 26 29.0
e 132 20 13.0
e 132 127 47.0
e 132 252 10.0
e 132 73 49.0
e 132 295 17.0
e 132 177 8.0
e 132 170 8.0
e 132 171 1.0
e 132 211 22.0
e 132 274 15.0
e 132 185 48.0
e 132 209 19.0
e 132 226 18.0
e 132 157 2.0
e 132 268 16.0
e 132 13 25.0
e 132 203 4.0
e 132 300 21.0
e 132 22 21.0
e 132 188 29.0
e 132 84 44.0
e 132 156 32.0
e 132 235 29.0
e 132 317 18.0
e 132 105 32.0
e 132 114 48.0
e 132 217 9.0
e 132 23 14.0
e 132 255 23.0
e 132 186 20.0
e 132 70 39.0
e 132 24 32.0
e 132 309 17.0
e 133 85 2.0
e 134 248 41.0
e 134 79 32.0
e 134 293 5.0
e 134 155 6.0
e 134 231 46.0
e 134 94 17.0
e 134 215 36.0
e 134 241 6.0
e 134 291 35.0
e 134 257 4.0
e 134 147 41.0
e 134 4 35.0
e 134 292 10.0
e 134 14 29.0
e 134 5 46.0
e 134 184 14.0
e 134 245 49.0
e 134 240 20.0
e 134 136 5.0
e 134 243 3.0
e 134 217 41.0
e 134 60 30.0
e 134 283 12.0
e 134 206 31.0
e 134 2 29.0
e 134 313 24.0
e 134 195 38.0
e 134 77 23.0
e 134 304 6.0
e 134 38 42.0
e 134 165 32.0
e 134 69 36.0
e 134 186 8.0
e 134 121 46.0
e 134 3 39.0
e 134 314 30.0
e 134 131 21.0
e 134 174 42.0
e 134 56 30.0
e 135 28 41.0
e 135 7 4.0
e 135 55 42.0
e 135 180 23.0
e 135 101 14.0
e 135 215 34.0
e 135 1 26.0
e 135 92 6.0
e 135 168 35.0
e 135 232 15.0
e 135 281 10.0
e 135 143 19.0
e 135 159 10.0
e 135 225 27.0
e 135 299 40.0
e 135 227 15.0
e 135 83 24.0
e 135 77 9.0
e 135 196 20.0
e 135 219 6.0
e 135 303 9.0
e 135 26 41.0
e 135 104 27.0
e 135 235 31.0
e 135 99 49.0
e 135 80 25.0
e 135 141 30.0
e 135 282 26.0
e 135 200 6.0
e 135 211 9.0
e 135 41 41.0
e 135 54 36.0
e 135 94 18.0
e 135 275 22.0
e 135 95 27.0
e 135 43 11.0
e 135 114 7.0
e 135 205 13.0
e 135 117 44.0
e 136 244 1.0
e 137 89 1.0
e 138 136 3.0
e 138 284 1.0
e 139 37 2.0
e 140 15 1.0
e 141 151 1.0
e 142 178 1.0
e 143 100 1.0
e 144 133 1.0
e 145 310 1.0
e 146 163 2.0
e 147 60 3.0
e 147 75 1.0
e 147 47 37.0
e 147 284 14.0
e 147 227 37.0
e 147 36 33.0
e 147 137 49.0
e 147 272 21.0
e 147 110 24.0
e 147 270 4.0
e 147 168 7.0
e 147 318 46.0
e 147 171 20.0
e 147 135 5.0
e 147 117 33.0
e 147 5 44.0
e 147 169 14.0
e 147 70 34.0
e 147 255 17.0
e 147 193 31.0
e 147 129 7.0
e 147 49 36.0
e 147 81 40.0
e 147 316 2.0
e 147 41 33.0
e 147 1 47.0
e 147 264 35.0
e 147 238 41.0
e 147 313 10.0
e 147 29 19.0
e 147 54 17.0
e 147 61 6.0
e 147 144 18.0
e 147 95 12.0
e 148 59 2.0
e 149 268 26.0
e 150 5 2.0
e 151 257 2.0
e 152 97 47.0
e 152 43 12.0
e 153 250 1.0
e 153 121 1.0
e 154 98 1.0
e 155 23 1.0
e 156 13 6.0
e 156 59 35.0
e 156 91 28.0
e 156 195 45.0
e 156 210 20.0
e 156 260 10.0
e 156 6 27.0
e 156 104 45.0
e 156 99 47.0
e 156 61 42.0
e 156 118 36.0
e 156 266 23.0
e 156 125 40.0
e 156 176 17.0
e 156 235 2.0
e 156 45 28.0
e 156 245 17.0
e 156 238 19.0
e 156 301 8.0
e 156 157 10.0
e 156 236 25.0
e 156 148 45.0
e 156 96 15.0
e 156 276 38.0
e 156 249 3.0
e 156 220 42.0
e 156 4 47.0
e 156 72 29.0
e 156 268 16.0
e 156 307 37.0
e 156 127 30.0
e 156 221 14.0
e 156 247 43.0
e 156 90 30.0
e 156 174 18.0
e 156 30 9.0
e 156 134 49.0
e 156 261 18.0
e 156 24 36.0
e 156 263 41.0
e 157 192 1.0
e 158 223 1.0
e 159 237 2.0
e 160 187 1.0
e 161 148 2.0
e 162 103 2.0
e 163 79 1.0
e 164 197 1.0
e 164 209 2.0
e 165 196 1.0
e 166 157 1.0
e 167 181 1.0
e 168 185 2.0
e 169 26 1.0
e 170 23 1.0
e 171 168 1.0
e 172 314 1.0
e 172 1 43.0
e 172 67 38.0
e 172 245 34.0
e 172 244 25.0
e 172 16 23.0
e 172 204 10.0
e 172 105 49.0
e 172 109 18.0
e 172 238 19.0
e 172 38 43.0
e 172 13 9.0
e 172 222 23.0
e 172 79 25.0
e 172 181 18.0
e 172 210 19.0
e 172 297 35.0
e 172 217 30.0
e 172 257 49.0
e 172 176 40.0
e 172 142 5.0
e 172 3 45.0
e 172 313 35.0
e 172 114 20.0
e 172 215 11.0
e 172 267 5.0
e 172 15 16.0
e 172 129 5.0
e 172 246 2.0
e 172 144 38.0
e 172 106 20.0
e 172 146 30.0
e 172 198 39.0
e 172 6 40.0
e 172 90 45.0
e 172 315 27.0
e 172 76 30.0
e 173 1 1.0
e 174 287 16.0
e 174 16 39.0
e 174 92 15.0
e 174 176 13.0
e 174 241 11.0
e 174 235 2.0
e 174 186 16.0
e 174 227 17.0
e 174 149 20.0
e 174 62 5.0
e 174 219 2.0
e 174 49 16.0
e 174 275 2.0
e 174 94 13.0
e 175 30 2.0
e 176 91 1.0
e 177 171 1.0
e 178 57 1.0
e 179 2 1.0
e 180 228 1.0
e 181 244 1.0
e 182 27 1.0
e 183 265 12.0
e 183 37 19.0
e 183 148 39.0
e 183 304 30.0
e 183 154 38.0
e 183 293 21.0
e 183 7 21.0
e 183 104 23.0
e 183 88 36.0
e 183 83 30.0
e 183 146 36.0
e 183 103 36.0
e 183 291 13.0
e 183 310 17.0
e 183 57 2.0
e 183 69 16.0
e 183 229 26.0
e 183 191 8.0
e 183 58 5.0
e 183 296 21.0
e 183 11 29.0
e 183 107 30.0
e 183 258 47.0
e 183 119 48.0
e 183 208 5.0
e 183 15 27.0
e 183 249 14.0
e 183 19 1.0
e 183 105 46.0
e 183 81 26.0
e 183 234 41.0
e 183 89 46.0
e 183 201 49.0
e 183 287 43.0
e 183 150 41.0
e 183 253 38.0
e 183 224 23.0
e 183 169 33.0
e 183 50 18.0
e 184 226 30.0
e 185 280 3.0
e 186 307 2.0
e 187 170 1.0
e 188 267 2.0
e 189 229 1.0
e 190 23 1.0
e 191 227 1.0
e 191 0 2.0
e 192 121 1.0
e 193 265 1.0
e 194 238 1.0
e 194 107 2.0
e 195 131 1.0
e 196 295 4.0
e 197 269 1.0
e 198 36 17.0
e 198 318 32.0
e 198 158 30.0
e 198 199 20.0
e 198 310 32.0
e 198 248 34.0
e 198 165 32.0
e 198 210 2.0
e 198 88 23.0
e 198 112 12.0
e 198 215 7.0
e 198 123 2.0
e 198 107 12.0
e 198 293 14.0
e 198 92 18.0
e 198 179 10.0
e 198 189 31.0
e 198 120 29.0
e 198 98 30.0
e 198 75 16.0
e 198 219 15.0
e 198 80 14.0
e 198 188 3.0
e 198 169 12.0
e 198 77 32.0
e 198 253 8.0
e 198 124 1.0
e 198 117 32.0
e 198 201 49.0
e 198 236 30.0
e 198 110 35.0
e 198 13 6.0
e 198 146 16.0
e 198 190 39.0
e 198 97 46.0
e 198 76 44.0
e 198 96 42.0
e 198 176 41.0
e 198 3 25.0
e 199 280 2.0
e 200 236 46.0
e 200 166 5.0
e 200 110 1.0
e 201 34 49.0
e 201 300 7.0
e 201 298 22.0
e 201 16 35.0
e 201 137 17.0
e 201 271 13.0
e 201 42 14.0
e 201 295 48.0
e 201 199 39.0
e 201 9 10.0
e 201 37 5.0
e 201 138 13.0
e 201 1 29.0
e 201 265 32.0
e 201 35 16.0
e 201 28 29.0
e 201 141 40.0
e 201 272 47.0
e 201 167 9.0
e 201 266 23.0
e 201 15 21.0
e 201 36 19.0
e 201 61 27.0
e 201 17 30.0
e 201 87 3.0
e 201 187 38.0
e 201 20 37.0
e 201 76 28.0
e 201 59 16.0
e 201 33 4.0
e 201 60 17.0
e 201 286 2.0
e 201 96 31.0
e 201 74 44.0
e 201 54 18.0
e 202 101 42.0
e 203 311 1.0
e 204 163 1.0
e 205 203 1.0
e 206 292 2.0
e 207 201 33.0
e 207 311 10.0
e 207 188 7.0
e 207 91 9.0
e 207 59 3.0
e 207 282 16.0
e 207 235 2.0
e 207 185 10.0
e 208 242 1.0
e 209 29 1.0
e 210 66 1.0
e 211 119 2.0
e 212 36 1.0
e 213 33 1.0
e 213 122 3.0
e 213 20 42.0
e 213 132 42.0
e 213 44 7.0
e 213 54 2.0
e 213 65 21.0
e 213 88 9.0
e 213 177 6.0
e 213 26 12.0
e 213 140 16.0
e 213 2 37.0
e 213 214 6.0
e 213 32 41.0
e 213 85 13.0
e 213 217 36.0
e 213 129 46.0
e 213 142 8.0
e 213 182 17.0
e 213 143 7.0
e 213 236 32.0
e 213 8 26.0
e 213 310 32.0
e 213 268 35.0
e 213 18 40.0
e 213 298 27.0
e 213 277 33.0
e 213 66 9.0
e 213 271 13.0
e 213 105 6.0
e 213 138 40.0
e 213 284 45.0
e 213 106 2.0
e 213 293 17.0
e 213 264 42.0
e 213 12 1.0
e 214 288 1.0
e 215 33 1.0
e 216 137 1.0
e 217 154 1.0
e 218 279 1.0
e 219 274 1.0
e 220 277 2.0
e 221 94 1.0
e 222 184 1.0
e 223 308 1.0
e 224 231 1.0
e 225 157 2.0
e 226 115 19.0
e 226 34 35.0
e 226 206 2.0
e 226 120 43.0
e 226 176 1.0
e 226 133 36.0
e 226 307 33.0
e 226 53 38.0
e 226 297 42.0
e 226 305 1.0
e 226 49 45.0
e 226 178 35.0
e 226 73 48.0
e 226 259 28.0
e 226 125 14.0
e 226 83 19.0
e 226 134 16.0
e 226 142 28.0
e 226 71 18.0
e 226 270 3.0
e 226 6 19.0
e 226 65 43.0
e 226 311 28.0
e 226 318 20.0
e 226 54 24.0
e 226 164 26.0
e 226 135 25.0
e 226 106 16.0
e 226 257 27.0
e 226 235 20.0
e 226 72 4.0
e 226 22 23.0
e 226 51 29.0
e 226 279 16.0
e 226 96 44.0
e 226 152 22.0
e 226 303 33.0
e 226 282 8.0
e 228 90 1.0
e 229 222 1.0
e 230 246 1.0
e 231 184 2.0
e 232 267 1.0
e 233 280 2.0
e 234 254 8.0
e 234 231 4.0
e 234 19 9.0
e 234 61 26.0
e 234 310 18.0
e 234 42 41.0
e 234 73 44.0
e 234 85 7.0
e 234 87 6.0
e 234 103 35.0
e 234 26 37.0
e 234 189 33.0
e 234 56 9.0
e 234 147 44.0
e 234 242 49.0
e 234 306 35.0
e 234 134 20.0
e 234 184 28.0
e 234 173 41.0
e 234 318 30.0
e 234 74 39.0
e 234 160 8.0
e 234 265 1.0
e 234 16 14.0
e 234 249 13.0
e 234 244 28.0
e 234 282 8.0
e 234 104 41.0
e 234 27 2.0
e 234 67 38.0
e 234 6 39.0
e 234 53 5.0
e 234 86 49.0
e 234 15 6.0
e 234 20 47.0
e 234 175 29.0
e 234 33 32.0
e 234 54 3.0
e 235 64 1.0
e 236 196 33.0
e 236 261 38.0
e 236 300 14.0
e 236 243 17.0
e 236 44 26.0
e 236 49 15.0
e 236 252 18.0
e 236 194 32.0
e 236 294 20.0
e 236 76 4.0
e 236 4 27.0
e 236 192 35.0
e 236 112 16.0
e 236 21 13.0
e 236 176 11.0
e 236 56 21.0
e 236 259 13.0
e 236 102 42.0
e 236 209 28.0
e 236 6 30.0
e 236 105 26.0
e 236 16 22.0
e 236 83 13.0
e 236 284 35.0
e 236 91 31.0
e 236 201 44.0
e 236 148 4.0
e 236 110 22.0
e 236 29 46.0
e 236 166 23.0
e 236 3 34.0
e 236 271 33.0
e 236 41 44.0
e 237 230 2.0
e 238 113 20.0
e 239 163 1.0
e 240 15 2.0
e 241 139 1.0
e 242 246 1.0
e 243 278 1.0
e 244 94 1.0
e 245 90 1.0
e 246 223 1.0
e 247 291 2.0
e 248 74 1.0
e 249 29 1.0
e 250 282 27.0
e 251 233 43.0
e 251 162 42.0
e 251 104 16.0
e 251 165 13.0
e 251 163 3.0
e 251 41 47.0
e 251 25 48.0
e 251 179 15.0
e 251 166 44.0
e 251 213 11.0
e 251 103 40.0
e 251 232 6.0
e 251 281 30.0
e 251 294 28.0
e 251 114 43.0
e 251 156 41.0
e 251 177 46.0
e 251 88 3.0
e 251 116 15.0
e 251 39 49.0
e 251 169 24.0
e 251 56 22.0
e 251 18 27.0
e 251 195 29.0
e 251 189 45.0
e 251 273 2.0
e 251 60 28.0
e 251 24 14.0
e 251 235 7.0
e 251 117 16.0
e 251 105 8.0
e 251 318 16.0
e 251 129 12.0
e 251 2 21.0
e 251 42 22.0
e 251 71 30.0
e 251 196 26.0
e 251 96 34.0
e 251 289 20.0
e 251 90 8.0
e 252 170 1.0
e 253 201 23.0
e 254 75 2.0
e 254 37 35.0
e 254 243 14.0
e 254 307 10.0
e 254 232 17.0
e 254 33 12.0
e 254 67 16.0
e 254 58 28.0
e 254 196 34.0
e 254 182 28.0
e 254 60 12.0
e 254 230 9.0
e 254 66 24.0
e 254 236 31.0
e 254 219 24.0
e 254 283 41.0
e 254 244 48.0
e 254 125 42.0
e 254 24 34.0
e 254 136 15.0
e 254 222 25.0
e 254 250 44.0
e 254 71 10.0
e 254 290 33.0
e 254 201 29.0
e 254 13 23.0
e 254 210 1.0
e 254 144 23.0
e 254 264 33.0
e 254 259 7.0
e 254 108 1.0
e 254 313 45.0
e 254 18 22.0
e 254 265 28.0
e 254 27 43.0
e 254 126 4.0
e 254 109 11.0
e 254 205 13.0
e 255 32 1.0
e 256 299 43.0
e 257 314 1.0
e 258 114 1.0
e 259 96 1.0
e 260 304 2.0
e 261 121 1.0
e 262 143 1.0
e 263 236 38.0
e 263 301 15.0
e 264 14 2.0
e 265 43 1.0
e 266 301 37.0
e 267 297 1.0
e 268 107 32.0
e 268 186 27.0
e 268 37 13.0
e 268 212 36.0
e 268 15 34.0
e 268 160 2.0
e 268 291 5.0
e 268 42 22.0
e 268 206 48.0
e 268 108 19.0
e 268 8 48.0
e 268 188 22.0
e 268 39 7.0
e 268 89 28.0
e 268 177 12.0
e 268 210 39.0
e 268 166 6.0
e 268 204 4.0
e 268 157 36.0
e 268 295 43.0
e 268 240 34.0
e 268 50 39.0
e 268 133 8.0
e 268 244 40.0
e 268 195 7.0
e 268 120 42.0
e 268 100 3.0
e 268 62 21.0
e 268 179 13.0
e 268 146 19.0
e 268 95 34.0
e 268 57 34.0
e 268 40 40.0
e 268 112 19.0
e 269 25 41.0
e 270 6 1.0
e 271 14 6.0
e 271 251 19.0
e 271 286 35.0
e 271 56 25.0
e 271 199 31.0
e 271 181 5.0
e 271 55 19.0
e 271 140 23.0
e 271 177 7.0
e 271 85 43.0
e 271 115 4.0
e 271 237 22.0
e 271 78 6.0
e 271 222 23.0
e 271 238 14.0
e 271 283 25.0
e 271 171 16.0
e 271 104 48.0
e 271 244 11.0
e 271 12 12.0
e 271 97 18.0
e 271 248 8.0
e 271 167 12.0
e 271 20 41.0
e 271 212 6.0
e 271 239 23.0
e 271 161 39.0
e 271 303 7.0
e 271 57 25.0
e 271 263 14.0
e 271 129 13.0
e 271 114 27.0
e 271 292 47.0
e 271 70 34.0
e 271 270 46.0
e 271 202 37.0
e 272 119 1.0
e 273 28 1.0
e 274 161 1.0
e 275 114 1.0
e 276 238 1.0
e 277 222 1.0
e 278 239 1.0
e 279 14 5.0
e 280 172 31.0
e 281 297 1.0
e 282 70 6.0
e 282 236 49.0
e 282 273 9.0
e 282 289 17.0
e 282 302 28.0
e 282 229 46.0
e 282 186 10.0
e 282 239 37.0
e 282 197 46.0
e 282 83 38.0
e 282 41 23.0
e 282 284 16.0
e 282 168 6.0
e 282 87 37.0
e 282 259 37.0
e 282 210 25.0
e 282 28 38.0
e 282 62 38.0
e 282 313 34.0
e 282 8 40.0
e 282 144 17.0
e 282 104 20.0
e 282 80 13.0
e 282 112 6.0
e 282 0 28.0
e 282 199 48.0
e 282 251 30.0
e 282 2 38.0
e 282 9 17.0
e 282 215 37.0
e 282 108 30.0
e 282 157 6.0
e 282 303 18.0
e 283 214 1.0
e 284 129 2.0
e 285 206 5.0
e 285 105 1.0
e 285 270 2.0
e 285 211 2.0
e 286 305 18.0
e 286 312 39.0
e 286 92 34.0
e 286 309 47.0
e 286 156 19.0
e 286 124 25.0
e 286 48 28.0
e 286 176 22.0
e 286 300 30.0
e 286 296 23.0
e 286 269 27.0
e 286 146 37.0
e 286 270 3.0
e 286 186 26.0
e 286 36 39.0
e 286 95 45.0
e 286 68 43.0
e 286 18 41.0
e 286 62 42.0
e 286 188 24.0
e 286 94 36.0
e 286 202 32.0
e 286 297 16.0
e 286 147 49.0
e 286 101 45.0
e 286 116 23.0
e 286 304 30.0
e 286 127 41.0
e 286 26 36.0
e 286 236 32.0
e 286 248 45.0
e 286 292 43.0
e 286 73 39.0
e 286 231 34.0
e 286 196 18.0
e 286 307 39.0
e 286 142 8.0
e 287 261 1.0
e 288 141 1.0
e 289 5 1.0
e 290 310 1.0
e 291 190 1.0
e 292 235 1.0
e 293 237 12.0
e 293 149 5.0
e 293 130 23.0
e 293 33 27.0
e 293 107 30.0
e 293 259 28.0
e 293 270 20.0
e 293 165 33.0
e 293 228 3.0
e 293 11 22.0
e 293 10 13.0
e 293 171 16.0
e 293 115 45.0
e 293 40 39.0
e 293 150 13.0
e 293 47 6.0
e 293 31 11.0
e 293 106 17.0
e 293 39 47.0
e 293 113 37.0
e 293 194 20.0
e 293 25 15.0
e 293 53 19.0
e 293 83 28.0
e 293 196 39.0
e 293 225 42.0
e 293 91 3.0
e 293 299 8.0
e 293 254 47.0
e 293 195 29.0
e 293 101 34.0
e 293 29 44.0
e 293 304 44.0
e 293 274 28.0
e 293 136 18.0
e 293 174 32.0
e 294 76 1.0
e 295 247 17.0
e 295 29 34.0
e 295 257 19.0
e 295 149 47.0
e 295 137 19.0
e 295 107 7.0
e 295 264 26.0
e 295 16 21.0
e 295 3 18.0
e 295 154 5.0
e 295 246 11.0
e 295 27 25.0
e 295 234 16.0
e 295 240 3.0
e 295 231 21.0
e 295 8 15.0
e 295 195 45.0
e 295 315 38.0
e 295 60 13.0
e 295 217 34.0
e 295 163 41.0
e 295 215 18.0
e 295 156 37.0
e 295 39 15.0
e 295 34 15.0
e 295 227 3.0
e 295 31 36.0
e 295 209 11.0
e 295 48 5.0
e 295 150 44.0
e 295 54 9.0
e 295 318 12.0
e 295 151 44.0
e 295 94 29.0
e 296 46 1.0
e 297 190 1.0
e 298 223 1.0
e 299 63 1.0
e 299 109 36.0
e 299 51 7.0
e 299 214 19.0
e 299 72 17.0
e 299 222 46.0
e 299 133 7.0
e 299 174 46.0
e 299 122 12.0
e 299 297 23.0
e 299 129 18.0
e 299 295 27.0
e 299 17 5.0
e 299 190 49.0
e 299 97 29.0
e 299 130 12.0
e 299 21 42.0
e 299 245 32.0
e 299 59 1.0
e 299 152 35.0
e 299 41 24.0
e 299 71 30.0
e 299 15 14.0
e 299 20 1.0
e 299 81 1.0
e 299 173 23.0
e 299 123 4.0
e 299 201 35.0
e 299 232 7.0
e 299 171 45.0
e 299 89 43.0
e 299 312 7.0
e 299 160 32.0
e 299 298 19.0
e 299 4 15.0
e 300 57 1.0
e 301 161 2.0
e 301 262 4.0
e 301 310 23.0
e 301 45 5.0
e 301 87 37.0
e 301 170 16.0
e 301 178 13.0
e 301 56 11.0
e 301 274 26.0
e 301 311 17.0
e 301 309 10.0
e 301 245 16.0
e 301 228 46.0
e 301 225 33.0
e 301 259 4.0
e 301 281 3.0
e 301 26 27.0
e 301 23 28.0
e 301 293 10.0
e 301 93 19.0
e 301 15 21.0
e 301 268 38.0
e 301 214 7.0
e 301 239 33.0
e 301 292 16.0
e 301 121 8.0
e 301 189 9.0
e 301 160 49.0
e 301 237 28.0
e 301 203 36.0
e 301 229 41.0
e 301 4 30.0
e 301 136 38.0
e 301 195 47.0
e 301 253 46.0
e 302 277 1.0
e 303 51 1.0
e 304 66 1.0
e 305 275 1.0
e 306 216 1.0
e 307 118 1.0
e 308 125 1.0
e 309 223 42.0
e 309 212 12.0
e 309 221 49.0
e 309 211 12.0
e 309 69 22.0
e 309 264 36.0
e 309 287 48.0
e 309 8 29.0
e 309 84 18.0
e 309 257 35.0
e 309 213 25.0
e 309 93 47.0
e 309 271 24.0
e 309 253 37.0
e 309 12 12.0
e 309 97 29.0
e 309 228 15.0
e 309 255 10.0
e 309 186 3.0
e 309 88 28.0
e 309 56 6.0
e 309 145 34.0
e 309 94 29.0
e 309 114 35.0
e 309 21 12.0
e 309 23 47.0
e 309 174 16.0
e 309 103 40.0
e 309 89 42.0
e 309 51 37.0
e 309 80 41.0
e 309 200 31.0
e 309 74 2.0
e 309 83 1.0
e 309 146 32.0
e 310 176 1.0
e 311 296 1.0
e 312 187 1.0
e 313 116 1.0
e 314 31 2.0
e 315 64 1.0
e 316 123 2.0
e 317 298 1.0
e 318 250 1.0
e 319 258 1.0
e 319 316 1.0
